clasp version 2.1.1
Reading from stdin
Solving...
UNSATISFIABLE

Models      : 0     
Time        : 0.038s (Solving: 0.00s 1st Model: 0.00s Unsat: 0.00s)
CPU Time    : 0.030s
Choices     : 191
Conflicts   : 103
Restarts    : 0     

Atoms       : 4835  
Rules       : 15733  (1: 15364 2: 360 3: 9)
Bodies      : 8821  
Equivalences: 3188   (Atom=Atom: 423 Body=Body: 0 Other: 2765)
Tight       : Yes

Variables   : 11700  (Eliminated:    0 Frozen: 3600)
Constraints : 17370  (Binary: 42.0% Ternary: 56.0% Other:  2.1%)
Lemmas      : 158    (Binary: 14.6% Ternary: 38.0% Other: 47.5%)
  Conflict  : 98     (Average Length: 4.1) 
  Loop      : 0      (Average Length: 0.0) 
  Other     : 60     (Average Length: 2.6)
  Deleted   : 0     

============ PARALLEL STATISTICS ============

Threads     : 3
Winner      : 0
Distributed : 85     (Ratio: 0.87 Average LBD: 2.76) 
Integrated  : 140    (Ratio: 1.65 Unit: 21 Average Jumps: 1.57)
Splits      : 0
Problems    : 3      (Average Length: 0.00) 

